NAME : st70.best.tour
TYPE : TOUR
DIMENSION : 70
TOUR_SECTION
1
23
16
47
37
58
50
53
5
10
52
60
12
21
34
33
56
51
65
64
11
67
48
54
62
39
25
45
61
40
46
27
9
17
43
41
6
42
18
4
32
3
44
68
30
20
14
28
8
49
55
26
19
7
2
24
15
57
63
66
22
59
38
31
69
35
70
13
29
36
EOF